146923.25,59.37,73.62
143576.4,60.75,75.34
157169.94,55.5,68.82
151665.91,57.51,71.32
156029.02,55.9,69.33
145051.64,60.13,74.57
160224.62,54.44,67.51
134872.24,64.67,80.2
155384.72,56.14,69.61
157474.26,55.39,68.69
145685.35,59.87,74.25
155757.17,56.0,69.45
146539.41,59.52,73.81
177500.94,49.14,60.94
143192.52,60.91,75.54
145775.74,59.84,74.2
159814.43,54.58,67.68
145287.99,60.04,74.45
162615.54,53.64,66.52
150918.99,57.8,71.67
